p cnf 410 715
a 51 56 61 66 71 76 81 86 91 96 101 107 113 119 125 131 137 143 149 155 0
e 409 410 0
a 41 42 43 44 45 46 47 48 49 50 0
e 2 3 4 5 6 7 8 9 10 11 12 14 15 17 18 20 21 23 24 26 27 29 30 32 33 35 36 38 39 54 55 59 60 64 65 69 70 74 75 79 80 84 85 89 90 94 95 99 100 105 106 111 112 117 118 123 124 129 130 135 136 141 142 147 148 153 154 159 160 161 162 163 164 165 166 167 168 169 170 13 16 19 22 25 28 31 34 37 40 52 53 57 58 62 63 67 68 72 73 77 78 82 83 87 88 92 93 97 98 102 103 104 108 109 110 114 115 116 120 121 122 126 127 128 132 133 134 138 139 140 144 145 146 150 151 152 156 157 158 172 174 176 178 180 182 184 186 188 190 171 173 175 177 179 181 183 185 187 189 191 192 193 194 195 196 197 198 199 200 202 203 204 205 206 207 208 209 210 211 212 213 214 215 216 217 218 219 220 221 222 223 224 225 226 227 228 229 230 231 232 233 234 235 236 237 238 239 240 241 242 243 244 245 246 248 247 304 309 314 319 324 329 334 339 344 349 354 360 366 372 378 384 390 396 402 408 0
11 -12 -409 0
12 -11 -409 0
13 -12 -409 0
12 -13 -409 0
14 -15 -409 0
15 -14 -409 0
16 -15 -409 0
15 -16 -409 0
17 -18 -409 0
18 -17 -409 0
19 -18 -409 0
18 -19 -409 0
20 -21 -409 0
21 -20 -409 0
22 -21 -409 0
21 -22 -409 0
23 -24 -409 0
24 -23 -409 0
25 -24 -409 0
24 -25 -409 0
26 -27 -409 0
27 -26 -409 0
28 -27 -409 0
27 -28 -409 0
29 -30 -409 0
30 -29 -409 0
31 -30 -409 0
30 -31 -409 0
32 -33 -409 0
33 -32 -409 0
34 -33 -409 0
33 -34 -409 0
35 -36 -409 0
36 -35 -409 0
37 -36 -409 0
36 -37 -409 0
38 -39 -409 0
39 -38 -409 0
40 -39 -409 0
39 -40 -409 0
54 -52 -409 0
54 -53 -409 0
52 53 -54 -409 0
54 -55 -409 0
55 -54 -409 0
59 -57 -409 0
59 -58 -409 0
57 58 -59 -409 0
59 -60 -409 0
60 -59 -409 0
64 -62 -409 0
64 -63 -409 0
62 63 -64 -409 0
64 -65 -409 0
65 -64 -409 0
69 -67 -409 0
69 -68 -409 0
67 68 -69 -409 0
69 -70 -409 0
70 -69 -409 0
74 -72 -409 0
74 -73 -409 0
72 73 -74 -409 0
74 -75 -409 0
75 -74 -409 0
79 -77 -409 0
79 -78 -409 0
77 78 -79 -409 0
79 -80 -409 0
80 -79 -409 0
84 -82 -409 0
84 -83 -409 0
82 83 -84 -409 0
84 -85 -409 0
85 -84 -409 0
89 -87 -409 0
89 -88 -409 0
87 88 -89 -409 0
89 -90 -409 0
90 -89 -409 0
94 -92 -409 0
94 -93 -409 0
92 93 -94 -409 0
94 -95 -409 0
95 -94 -409 0
99 -97 -409 0
99 -98 -409 0
97 98 -99 -409 0
99 -100 -409 0
100 -99 -409 0
105 -102 -409 0
105 -103 -409 0
105 -104 -409 0
102 103 104 -105 -409 0
105 -106 -409 0
106 -105 -409 0
111 -108 -409 0
111 -109 -409 0
111 -110 -409 0
108 109 110 -111 -409 0
111 -112 -409 0
112 -111 -409 0
117 -114 -409 0
117 -115 -409 0
117 -116 -409 0
114 115 116 -117 -409 0
117 -118 -409 0
118 -117 -409 0
123 -120 -409 0
123 -121 -409 0
123 -122 -409 0
120 121 122 -123 -409 0
123 -124 -409 0
124 -123 -409 0
129 -126 -409 0
129 -127 -409 0
129 -128 -409 0
126 127 128 -129 -409 0
129 -130 -409 0
130 -129 -409 0
135 -132 -409 0
135 -133 -409 0
135 -134 -409 0
132 133 134 -135 -409 0
135 -136 -409 0
136 -135 -409 0
141 -138 -409 0
141 -139 -409 0
141 -140 -409 0
138 139 140 -141 -409 0
141 -142 -409 0
142 -141 -409 0
147 -144 -409 0
147 -145 -409 0
147 -146 -409 0
144 145 146 -147 -409 0
147 -148 -409 0
148 -147 -409 0
153 -150 -409 0
153 -151 -409 0
153 -152 -409 0
150 151 152 -153 -409 0
153 -154 -409 0
154 -153 -409 0
159 -156 -409 0
159 -157 -409 0
159 -158 -409 0
156 157 158 -159 -409 0
159 -160 -409 0
160 -159 -409 0
101 -161 -409 0
161 -101 -409 0
107 -162 -409 0
162 -107 -409 0
113 -163 -409 0
163 -113 -409 0
119 -164 -409 0
164 -119 -409 0
125 -165 -409 0
165 -125 -409 0
131 -166 -409 0
166 -131 -409 0
137 -167 -409 0
167 -137 -409 0
143 -168 -409 0
168 -143 -409 0
149 -169 -409 0
169 -149 -409 0
155 -170 -409 0
170 -155 -409 0
101 -13 -409 0
51 -13 -409 0
13 -101 -51 -409 0
107 -16 -409 0
56 -16 -409 0
16 -107 -56 -409 0
113 -19 -409 0
61 -19 -409 0
19 -113 -61 -409 0
119 -22 -409 0
66 -22 -409 0
22 -119 -66 -409 0
125 -25 -409 0
71 -25 -409 0
25 -125 -71 -409 0
131 -28 -409 0
76 -28 -409 0
28 -131 -76 -409 0
137 -31 -409 0
81 -31 -409 0
31 -137 -81 -409 0
143 -34 -409 0
86 -34 -409 0
34 -143 -86 -409 0
149 -37 -409 0
91 -37 -409 0
37 -149 -91 -409 0
155 -40 -409 0
96 -40 -409 0
40 -155 -96 -409 0
101 -52 -409 0
171 -52 -409 0
52 -101 -171 -409 0
101 -53 -409 0
51 -53 -409 0
172 -53 -409 0
53 -101 -51 -172 -409 0
107 -57 -409 0
173 -57 -409 0
2 -57 -409 0
57 -107 -173 -2 -409 0
107 -58 -409 0
56 -58 -409 0
174 -58 -409 0
58 -107 -56 -174 -409 0
113 -62 -409 0
175 -62 -409 0
3 -62 -409 0
62 -113 -175 -3 -409 0
113 -63 -409 0
61 -63 -409 0
176 -63 -409 0
63 -113 -61 -176 -409 0
119 -67 -409 0
177 -67 -409 0
4 -67 -409 0
67 -119 -177 -4 -409 0
119 -68 -409 0
66 -68 -409 0
178 -68 -409 0
68 -119 -66 -178 -409 0
125 -72 -409 0
179 -72 -409 0
5 -72 -409 0
72 -125 -179 -5 -409 0
125 -73 -409 0
71 -73 -409 0
180 -73 -409 0
73 -125 -71 -180 -409 0
131 -77 -409 0
181 -77 -409 0
6 -77 -409 0
77 -131 -181 -6 -409 0
131 -78 -409 0
76 -78 -409 0
182 -78 -409 0
78 -131 -76 -182 -409 0
137 -82 -409 0
183 -82 -409 0
7 -82 -409 0
82 -137 -183 -7 -409 0
137 -83 -409 0
81 -83 -409 0
184 -83 -409 0
83 -137 -81 -184 -409 0
143 -87 -409 0
185 -87 -409 0
8 -87 -409 0
87 -143 -185 -8 -409 0
143 -88 -409 0
86 -88 -409 0
186 -88 -409 0
88 -143 -86 -186 -409 0
149 -92 -409 0
187 -92 -409 0
9 -92 -409 0
92 -149 -187 -9 -409 0
149 -93 -409 0
91 -93 -409 0
188 -93 -409 0
93 -149 -91 -188 -409 0
155 -97 -409 0
189 -97 -409 0
10 -97 -409 0
97 -155 -189 -10 -409 0
155 -98 -409 0
96 -98 -409 0
190 -98 -409 0
98 -155 -96 -190 -409 0
191 -102 -409 0
171 -102 -409 0
41 -102 -409 0
102 -191 -171 -41 -409 0
101 -103 -409 0
171 -103 -409 0
103 -101 -171 -409 0
101 -104 -409 0
51 -104 -409 0
172 -104 -409 0
104 -101 -51 -172 -409 0
192 -108 -409 0
173 -108 -409 0
42 -108 -409 0
108 -192 -173 -42 -409 0
107 -109 -409 0
173 -109 -409 0
109 -107 -173 -409 0
107 -110 -409 0
56 -110 -409 0
174 -110 -409 0
110 -107 -56 -174 -409 0
193 -114 -409 0
175 -114 -409 0
43 -114 -409 0
114 -193 -175 -43 -409 0
113 -115 -409 0
175 -115 -409 0
115 -113 -175 -409 0
113 -116 -409 0
61 -116 -409 0
176 -116 -409 0
116 -113 -61 -176 -409 0
194 -120 -409 0
177 -120 -409 0
44 -120 -409 0
120 -194 -177 -44 -409 0
119 -121 -409 0
177 -121 -409 0
121 -119 -177 -409 0
119 -122 -409 0
66 -122 -409 0
178 -122 -409 0
122 -119 -66 -178 -409 0
195 -126 -409 0
179 -126 -409 0
45 -126 -409 0
126 -195 -179 -45 -409 0
125 -127 -409 0
179 -127 -409 0
127 -125 -179 -409 0
125 -128 -409 0
71 -128 -409 0
180 -128 -409 0
128 -125 -71 -180 -409 0
196 -132 -409 0
181 -132 -409 0
46 -132 -409 0
132 -196 -181 -46 -409 0
131 -133 -409 0
181 -133 -409 0
133 -131 -181 -409 0
131 -134 -409 0
76 -134 -409 0
182 -134 -409 0
134 -131 -76 -182 -409 0
197 -138 -409 0
183 -138 -409 0
47 -138 -409 0
138 -197 -183 -47 -409 0
137 -139 -409 0
183 -139 -409 0
139 -137 -183 -409 0
137 -140 -409 0
81 -140 -409 0
184 -140 -409 0
140 -137 -81 -184 -409 0
198 -144 -409 0
185 -144 -409 0
48 -144 -409 0
144 -198 -185 -48 -409 0
143 -145 -409 0
185 -145 -409 0
145 -143 -185 -409 0
143 -146 -409 0
86 -146 -409 0
186 -146 -409 0
146 -143 -86 -186 -409 0
199 -150 -409 0
187 -150 -409 0
49 -150 -409 0
150 -199 -187 -49 -409 0
149 -151 -409 0
187 -151 -409 0
151 -149 -187 -409 0
149 -152 -409 0
91 -152 -409 0
188 -152 -409 0
152 -149 -91 -188 -409 0
200 -156 -409 0
189 -156 -409 0
50 -156 -409 0
156 -200 -189 -50 -409 0
155 -157 -409 0
189 -157 -409 0
157 -155 -189 -409 0
155 -158 -409 0
96 -158 -409 0
190 -158 -409 0
158 -155 -96 -190 -409 0
41 172 -409 0
-41 -172 -409 0
42 174 -409 0
-42 -174 -409 0
43 176 -409 0
-43 -176 -409 0
44 178 -409 0
-44 -178 -409 0
45 180 -409 0
-45 -180 -409 0
46 182 -409 0
-46 -182 -409 0
47 184 -409 0
-47 -184 -409 0
48 186 -409 0
-48 -186 -409 0
49 188 -409 0
-49 -188 -409 0
50 190 -409 0
-50 -190 -409 0
51 171 -409 0
-51 -171 -409 0
56 173 -409 0
-56 -173 -409 0
61 175 -409 0
-61 -175 -409 0
66 177 -409 0
-66 -177 -409 0
71 179 -409 0
-71 -179 -409 0
76 181 -409 0
-76 -181 -409 0
81 183 -409 0
-81 -183 -409 0
86 185 -409 0
-86 -185 -409 0
91 187 -409 0
-91 -187 -409 0
96 189 -409 0
-96 -189 -409 0
101 191 -409 0
-101 -191 -409 0
107 192 -409 0
-107 -192 -409 0
113 193 -409 0
-113 -193 -409 0
119 194 -409 0
-119 -194 -409 0
125 195 -409 0
-125 -195 -409 0
131 196 -409 0
-131 -196 -409 0
137 197 -409 0
-137 -197 -409 0
143 198 -409 0
-143 -198 -409 0
149 199 -409 0
-149 -199 -409 0
155 200 -409 0
-155 -200 -409 0
24 -202 -409 0
36 -202 -409 0
202 -24 -36 -409 0
24 -203 -409 0
39 -203 -409 0
203 -24 -39 -409 0
27 -204 -409 0
30 -204 -409 0
204 -27 -30 -409 0
27 -205 -409 0
33 -205 -409 0
205 -27 -33 -409 0
27 -206 -409 0
36 -206 -409 0
206 -27 -36 -409 0
27 -207 -409 0
39 -207 -409 0
207 -27 -39 -409 0
12 -208 -409 0
24 -208 -409 0
208 -12 -24 -409 0
30 -209 -409 0
33 -209 -409 0
209 -30 -33 -409 0
30 -210 -409 0
36 -210 -409 0
210 -30 -36 -409 0
30 -211 -409 0
39 -211 -409 0
211 -30 -39 -409 0
33 -212 -409 0
36 -212 -409 0
212 -33 -36 -409 0
33 -213 -409 0
39 -213 -409 0
213 -33 -39 -409 0
36 -214 -409 0
39 -214 -409 0
214 -36 -39 -409 0
12 -215 -409 0
27 -215 -409 0
215 -12 -27 -409 0
12 -216 -409 0
30 -216 -409 0
216 -12 -30 -409 0
12 -217 -409 0
33 -217 -409 0
217 -12 -33 -409 0
12 -218 -409 0
36 -218 -409 0
218 -12 -36 -409 0
12 -219 -409 0
39 -219 -409 0
219 -12 -39 -409 0
12 -220 -409 0
15 -220 -409 0
220 -12 -15 -409 0
15 -221 -409 0
18 -221 -409 0
221 -15 -18 -409 0
15 -222 -409 0
21 -222 -409 0
222 -15 -21 -409 0
15 -223 -409 0
24 -223 -409 0
223 -15 -24 -409 0
15 -224 -409 0
27 -224 -409 0
224 -15 -27 -409 0
15 -225 -409 0
30 -225 -409 0
225 -15 -30 -409 0
15 -226 -409 0
33 -226 -409 0
226 -15 -33 -409 0
15 -227 -409 0
36 -227 -409 0
227 -15 -36 -409 0
15 -228 -409 0
39 -228 -409 0
228 -15 -39 -409 0
18 -229 -409 0
21 -229 -409 0
229 -18 -21 -409 0
18 -230 -409 0
24 -230 -409 0
230 -18 -24 -409 0
12 -231 -409 0
18 -231 -409 0
231 -12 -18 -409 0
18 -232 -409 0
27 -232 -409 0
232 -18 -27 -409 0
18 -233 -409 0
30 -233 -409 0
233 -18 -30 -409 0
18 -234 -409 0
33 -234 -409 0
234 -18 -33 -409 0
18 -235 -409 0
36 -235 -409 0
235 -18 -36 -409 0
18 -236 -409 0
39 -236 -409 0
236 -18 -39 -409 0
21 -237 -409 0
24 -237 -409 0
237 -21 -24 -409 0
21 -238 -409 0
27 -238 -409 0
238 -21 -27 -409 0
21 -239 -409 0
30 -239 -409 0
239 -21 -30 -409 0
21 -240 -409 0
33 -240 -409 0
240 -21 -33 -409 0
21 -241 -409 0
36 -241 -409 0
241 -21 -36 -409 0
12 -242 -409 0
21 -242 -409 0
242 -12 -21 -409 0
21 -243 -409 0
39 -243 -409 0
243 -21 -39 -409 0
24 -244 -409 0
27 -244 -409 0
244 -24 -27 -409 0
24 -245 -409 0
30 -245 -409 0
245 -24 -30 -409 0
24 -246 -409 0
33 -246 -409 0
246 -24 -33 -409 0
247 248 -409 0
-247 -248 -409 0
247 -220 -409 0
247 -231 -409 0
247 -242 -409 0
247 -208 -409 0
247 -215 -409 0
247 -216 -409 0
247 -217 -409 0
247 -218 -409 0
247 -219 -409 0
247 -221 -409 0
247 -222 -409 0
247 -223 -409 0
247 -224 -409 0
247 -225 -409 0
247 -226 -409 0
247 -227 -409 0
247 -228 -409 0
247 -229 -409 0
247 -230 -409 0
247 -232 -409 0
247 -233 -409 0
247 -234 -409 0
247 -235 -409 0
247 -236 -409 0
247 -237 -409 0
247 -238 -409 0
247 -239 -409 0
247 -240 -409 0
247 -241 -409 0
247 -243 -409 0
247 -244 -409 0
247 -245 -409 0
247 -246 -409 0
247 -202 -409 0
247 -203 -409 0
247 -204 -409 0
247 -205 -409 0
247 -206 -409 0
247 -207 -409 0
247 -209 -409 0
247 -210 -409 0
247 -211 -409 0
247 -212 -409 0
247 -213 -409 0
247 -214 -409 0
220 231 242 208 215 216 217 218 219 221 222 223 224 225 226 227 228 229 230 232 233 234 235 236 237 238 239 240 241 243 244 245 246 202 203 204 205 206 207 209 210 211 212 213 214 -247 -409 0
248 -409 0
55 -304 -409 0
304 -55 -409 0
60 -309 -409 0
309 -60 -409 0
65 -314 -409 0
314 -65 -409 0
70 -319 -409 0
319 -70 -409 0
75 -324 -409 0
324 -75 -409 0
80 -329 -409 0
329 -80 -409 0
85 -334 -409 0
334 -85 -409 0
90 -339 -409 0
339 -90 -409 0
95 -344 -409 0
344 -95 -409 0
100 -349 -409 0
349 -100 -409 0
106 -354 -409 0
354 -106 -409 0
112 -360 -409 0
360 -112 -409 0
118 -366 -409 0
366 -118 -409 0
124 -372 -409 0
372 -124 -409 0
130 -378 -409 0
378 -130 -409 0
136 -384 -409 0
384 -136 -409 0
142 -390 -409 0
390 -142 -409 0
148 -396 -409 0
396 -148 -409 0
154 -402 -409 0
402 -154 -409 0
160 -408 -409 0
408 -160 -409 0
51 -304 -409 0
304 -51 -409 0
56 -309 -409 0
309 -56 -409 0
61 -314 -409 0
314 -61 -409 0
66 -319 -409 0
319 -66 -409 0
71 -324 -409 0
324 -71 -409 0
76 -329 -409 0
329 -76 -409 0
81 -334 -409 0
334 -81 -409 0
86 -339 -409 0
339 -86 -409 0
91 -344 -409 0
344 -91 -409 0
96 -349 -409 0
349 -96 -409 0
101 -354 -409 0
354 -101 -409 0
107 -360 -409 0
360 -107 -409 0
113 -366 -409 0
366 -113 -409 0
119 -372 -409 0
372 -119 -409 0
125 -378 -409 0
378 -125 -409 0
131 -384 -409 0
384 -131 -409 0
137 -390 -409 0
390 -137 -409 0
143 -396 -409 0
396 -143 -409 0
149 -402 -409 0
402 -149 -409 0
155 -408 -409 0
408 -155 -409 0
409 410 0
51 56 61 66 71 76 81 86 91 96 101 107 113 119 125 131 137 143 149 155 -410 0
